c defined variables: 13 14 15 16 17 18 19 20 21 22 23 24 25 26 27 30 31 32 33 34 35 36 37 38 41 42 43 44 45 46 47 48 49 50 51 52 
p cnf 204 281
a 1 3 4 5 6 7 8 9 10 0
e 28 29 39 40 13 14 15 16 17 18 19 20 21 22 23 24 25 26 27 30 31 32 33 34 35 36 37 38 41 42 43 44 45 46 47 48 49 50 51 52 175 176 177 178 179 180 181 182 183 184 185 186 187 188 189 190 191 192 193 194 195 196 197 198 199 200 201 202 203 204 0
d 2 1 3 4 5 6 0
d 11 3 4 5 6 0
d 12 7 8 9 10 0
176 -13 0
-176 13 0
177 -14 0
-177 14 0
178 -15 0
-178 15 0
179 -16 0
-179 16 0
180 -17 0
-180 17 0
181 -18 0
-181 18 0
182 -19 0
-182 19 0
183 -20 0
-183 20 0
184 -21 0
-184 21 0
185 -22 0
-185 22 0
186 -23 0
-186 23 0
187 -24 0
-187 24 0
188 -25 0
-188 25 0
189 -26 0
-189 26 0
190 -27 0
-190 27 0
191 -30 0
-191 30 0
-175 -31 0
175 31 0
192 -32 0
-192 32 0
193 -33 0
-193 33 0
194 -34 0
-194 34 0
195 -35 0
-195 35 0
196 -36 0
-196 36 0
197 -37 0
-197 37 0
198 -38 0
-198 38 0
199 -41 0
-199 41 0
200 -42 0
-200 42 0
201 -43 0
-201 43 0
-175 -44 0
175 44 0
-175 -45 0
175 45 0
202 -46 0
-202 46 0
203 -47 0
-203 47 0
204 -48 0
-204 48 0
-175 -49 0
175 49 0
175 -50 0
-175 50 0
175 -51 0
-175 51 0
175 -52 0
-175 52 0
-13 -7 0
-13 3 0
13 7 -3 0
-14 7 0
-14 -3 0
14 -7 3 0
-15 -13 0
-15 -14 0
15 13 14 0
-16 -8 0
-16 4 0
16 8 -4 0
-17 8 0
-17 -4 0
17 -8 4 0
-18 -16 0
-18 -17 0
18 16 17 0
-19 15 0
-19 18 0
19 -15 -18 0
-20 -9 0
-20 5 0
20 9 -5 0
-21 9 0
-21 -5 0
21 -9 5 0
-22 -20 0
-22 -21 0
22 20 21 0
-23 -10 0
-23 6 0
23 10 -6 0
-24 10 0
-24 -6 0
24 -10 6 0
-25 -23 0
-25 -24 0
25 23 24 0
-26 22 0
-26 25 0
26 -22 -25 0
-27 19 0
-27 26 0
27 -19 -26 0
-28 12 0
-28 -11 0
28 -12 11 0
-29 -12 0
-29 11 0
29 12 -11 0
-30 -28 0
-30 -29 0
30 28 29 0
-31 27 0
-31 -30 0
31 -27 30 0
-32 -8 0
-32 -3 0
32 8 3 0
-33 8 0
-33 3 0
33 -8 -3 0
-34 -32 0
-34 -33 0
34 32 33 0
-35 7 0
-35 34 0
35 -7 -34 0
-36 -9 0
-36 4 0
36 9 -4 0
-37 9 0
-37 -4 0
37 -9 4 0
-38 -36 0
-38 -37 0
38 36 37 0
-39 -10 0
-39 2 0
39 10 -2 0
-40 10 0
-40 -2 0
40 -10 2 0
-41 -39 0
-41 -40 0
41 39 40 0
-42 38 0
-42 41 0
42 -38 -41 0
-43 35 0
-43 42 0
43 -35 -42 0
-44 43 0
-44 29 0
44 -43 -29 0
-45 11 0
-45 5 0
45 -11 -5 0
-46 -4 0
-46 -3 0
46 4 3 0
-47 -6 0
-47 -5 0
47 6 5 0
-48 46 0
-48 47 0
48 -46 -47 0
-49 -11 0
-49 48 0
49 11 -48 0
-50 -45 0
-50 -49 0
50 45 49 0
-51 -44 0
-51 50 0
51 44 -50 0
-52 -31 0
-52 51 0
52 31 -51 0
52 0
175 0
3 -176 0
-7 -176 0
-3 7 176 0
-3 -177 0
7 -177 0
3 -7 177 0
-13 -178 0
-14 -178 0
13 14 178 0
4 -179 0
-8 -179 0
-4 8 179 0
-4 -180 0
8 -180 0
4 -8 180 0
-16 -181 0
-17 -181 0
16 17 181 0
15 -182 0
18 -182 0
-15 -18 182 0
5 -183 0
-9 -183 0
-5 9 183 0
-5 -184 0
9 -184 0
5 -9 184 0
-20 -185 0
-21 -185 0
20 21 185 0
6 -186 0
-10 -186 0
-6 10 186 0
-6 -187 0
10 -187 0
6 -10 187 0
-23 -188 0
-24 -188 0
23 24 188 0
22 -189 0
25 -189 0
-22 -25 189 0
19 -190 0
26 -190 0
-19 -26 190 0
-28 -191 0
-29 -191 0
28 29 191 0
-3 -192 0
-8 -192 0
3 8 192 0
3 -193 0
8 -193 0
-3 -8 193 0
-32 -194 0
-33 -194 0
32 33 194 0
7 -195 0
34 -195 0
-7 -34 195 0
4 -196 0
-9 -196 0
-4 9 196 0
-4 -197 0
9 -197 0
4 -9 197 0
-36 -198 0
-37 -198 0
36 37 198 0
-39 -199 0
-40 -199 0
39 40 199 0
38 -200 0
41 -200 0
-38 -41 200 0
35 -201 0
42 -201 0
-35 -42 201 0
-3 -202 0
-4 -202 0
3 4 202 0
-5 -203 0
-6 -203 0
5 6 203 0
46 -204 0
47 -204 0
-46 -47 204 0
